LAMMPS (31 Mar 2017)

units lj
boundary p p p
atom_style bond

read_data lammps_input.txt
  orthogonal box = (-8 -8 -8) to (8 8 8)
  1 by 1 by 1 MPI processor grid
  reading atoms ...
  16 atoms
  scanning bonds ...
  1 = max bonds/atom
  reading bonds ...
  8 bonds
  2 = max # of 1-2 neighbors
  2 = max # of 1-3 neighbors
  4 = max # of 1-4 neighbors
  6 = max # of special neighbors

mass * 1.0

pair_style lj/cut 2.5
pair_coeff * * 1.0 1.0 2.5
bond_style fene
bond_coeff 1 30.0 1.5 1.0 1.0


#fix 1 all nvt temp 1.0 1.0 0.5
fix 2 all npt iso 0.5 0.5 1 temp 1.0 1.0 0.5
neigh_modify every 1 delay 0
timestep 0.005

group chain type 2
9 atoms in group chain
group solvents type 1
7 atoms in group solvents
dump 1 chain custom 10000 A.lammpstrj id mol type x y z
dump 2 solvents custom 10000 B.lammpstrj id mol type x y z
thermo 1000
run 1000000
WARNING: Use special bonds = 0,1,1 with bond style fene (../bond_fene.cpp:188)
Neighbor list info ...
  update every 1 steps, delay 0 steps, check yes
  max neighbors/atom: 2000, page size: 100000
  master list distance cutoff = 2.8
  ghost atom cutoff = 2.8
  binsize = 1.4, bins = 12 12 12
  1 neighbor lists, perpetual/occasional/extra = 1 0 0
  (1) pair lj/cut, perpetual
      attributes: half, newton on
      pair build: half/bin/newton
      stencil: half/bin/3d/newton
      bin: standard
Per MPI rank memory allocation (min/avg/max) = 6.517 | 6.517 | 6.517 Mbytes
Step Temp E_pair E_mol TotEng Press Volume 
       0            0 -0.034606934      10.4189    10.384293 -0.0041723251         4096 
    1000   0.66461811    6.1131718    17.288326    24.336117   0.50426734    2594.6804 
    2000    1.0696904    7.7107137    14.262437    23.477403   0.44699625    2632.9799 
    3000   0.41515031    10.529154    15.049734    26.162694    0.5595144    2550.2383 
    4000   0.69755093    5.7165215    18.211209    24.908661   0.52413375    2583.4925 
    5000     1.009515    5.4993517    15.954368     22.87335   0.43905394    2651.2598 
    6000   0.32678137    5.9456837    19.556698    25.961918    0.5668773    2580.2734 
    7000   0.66777519    5.9250088    17.926904    24.790972   0.51146475    2606.4148 
    8000   0.89911165    8.6222034    14.653444    24.540023   0.49126789    2592.1671 
    9000   0.94314385    9.0253474    15.124552    25.476196   0.51972663    2579.6975 
   10000    1.0101951    7.9894812    15.627762     25.03783   0.50941526    2572.7077 
   11000   0.89874214    6.9050936    16.055187    24.224136   0.48413498    2619.2883 
   12000   0.76773445    8.0169665    14.175505    23.272098   0.45244818    2622.4578 
   13000     1.000824    5.6454857    17.823265     24.87616   0.51024532    2596.0609 
   14000    0.4622746    10.403148    15.038113    26.091334   0.55684893      2542.67 
   15000    1.0046718    7.2074324    15.276919    23.897172   0.46287575    2624.3908 
   16000   0.91258682    8.7613299    14.737757    24.782412   0.50151878    2576.3705 
   17000   0.84271376    7.6721845    16.731737    25.588988    0.5327432    2578.5867 
   18000   0.42866711    8.8109443    14.206342    23.620099    0.4705545    2624.6809 
   19000   0.62285573    7.2094868     16.84615    24.931528   0.52512132    2576.4562 
   20000   0.91762656    8.9991135    15.853855    26.143381   0.54673271      2549.59 
   21000   0.99737812    7.5339622    14.099547    23.036072   0.43428114    2645.6868 
   22000   0.63412119    8.1954196    15.612705    24.699857   0.50752467    2591.1571 
   23000    1.2787997    8.0105787     15.37866    25.187551   0.50099535    2589.4397 
   24000   0.97426337    6.5455373    15.666078    23.581673   0.46339493    2620.1656 
   25000   0.87007083    5.3788392     18.57293    25.175306   0.52775303     2585.586 
   26000    1.5692972    6.8873668    15.912929     25.00712   0.48863982     2602.426 
   27000   0.68908301    7.7033411    14.893785    23.566149   0.46794239     2625.566 
   28000   0.90648601    8.1670131    15.517974    24.959733   0.50174175    2606.6538 
   29000   0.81074578    9.2932235    15.527599    25.960933   0.54290709    2564.3106 
   30000   0.80713439    6.9316183    16.408788    24.475439   0.49519412    2605.2858 
   31000     1.028707    6.6362589    16.112588    24.195467   0.47713329    2617.2048 
   32000   0.68119405    7.9624519    16.169623    25.090004   0.52180633    2575.6034 
   33000    1.0520297    5.2345316    16.364228    23.078177   0.43881985    2668.3447 
   34000    1.0599238    9.0062349    15.719017     26.21577   0.54490347    2553.6119 
   35000   0.94159924    7.0737035    16.130486    24.528313   0.48780038    2616.2893 
   36000    1.1716001    6.2156921    15.958344    23.821599    0.4575841    2645.6617 
   37000   0.99587592     6.772863    16.432806    24.606119   0.49738472    2592.9773 
   38000   0.99599099    9.4829647    15.654228    26.537805   0.54716257    2565.1348 
   39000   0.87287832     6.435198    16.050388    23.713071   0.46748546    2629.2029 
   40000    1.7214061    7.1244952    14.823811    24.369034   0.45362529    2630.7376 
   41000   0.78318967    10.271053    14.322103    25.694517   0.52840308    2569.8155 
   42000   0.98657078    7.4973133    15.865938    24.750616   0.50000568    2586.4622 
   43000    1.5576052    7.1724977     14.92947     24.29235   0.45257502    2649.9101 
   44000   0.61669927    8.0053082    16.821255    25.693797   0.54490581    2563.0552 
   45000    1.3731484    8.7716434    14.633944    25.336577   0.49581963    2602.4861 
   46000    1.1659701     7.551285    14.981316    24.172246   0.46672884     2628.786 
   47000     1.032007    7.8248612    17.165121    26.441242    0.5631569    2534.9205 
   48000   0.74916656    7.0195274    17.365853    25.438896   0.53160586    2586.9855 
   49000    1.0881867    7.2993261    14.985911      23.8155   0.45475415    2644.4894 
   50000   0.98525832    7.6471902    16.483616    25.516326   0.53051846    2560.4285 
   51000    1.7152353    7.2644615    16.147533    25.824044   0.50947576    2579.6538 
   52000    1.2174606    8.5177931    14.373313     24.60316   0.48094469    2599.4082 
   53000   0.86065275    9.3999831    15.861528    26.471804   0.56001716    2539.5101 
   54000     1.773033    6.8496694     15.11584    24.458837   0.45545522    2633.6355 
   55000   0.86994156    6.8966331    16.361917    24.481905   0.49177674    2613.7071 
   56000   0.94068596    7.3264982    16.764567    25.413905   0.53444879    2551.5433 
   57000   0.96531908    6.7025213    16.270665    24.330666   0.48511467    2618.5819 
   58000   0.76515129    6.8654537    15.158558    23.100006   0.44878977    2640.8906 
   59000   0.99528436    7.2252552    17.553658    26.178532   0.55653554    2545.7459 
   60000   0.95797697    7.3016464    15.876801    24.525602   0.48850147    2624.3819 
   61000    1.1188866    7.4432282    15.126448     24.14311   0.46715417    2632.9537 
   62000    1.2185754    8.0228189    15.499982    25.236423    0.5053977     2579.001 
   63000    1.5799235    9.0043034    14.333242    25.559313   0.49857331    2580.8578 
   64000   0.66865767    6.4814265    17.183015    24.604741   0.50336947    2608.2737 
   65000   0.54657656    6.7783651    15.977284    23.524273   0.47138996    2632.2757 
   66000     1.348802    7.4107303    16.397441    25.704924   0.52041493    2575.1905 
   67000   0.78207416    8.4837041    15.340798    24.924294   0.51074727    2579.7794 
   68000    1.5879363    5.9660636    15.351247    23.550346   0.43802865    2641.4712 
   69000    1.3711096    5.8708182    16.960492    24.759433   0.49065019     2603.886 
   70000   0.96728626    7.9033533    16.547721    25.811321    0.5350005    2565.8458 
   71000   0.67718888    7.2926676    14.635543    22.880507   0.44311957    2652.7762 
   72000   0.85760561    6.7821777    15.491306    23.479492   0.45646595     2641.541 
   73000    1.0327098    7.1230094    18.698217    27.273474    0.6008321    2501.1638 
   74000    1.5308806    8.0105992    14.879452    25.042852   0.48676058    2592.3394 
   75000   0.97310318    8.8302397    14.825256    25.023922   0.50650032    2577.6161 
   76000   0.97299532    7.1229284      16.3303    24.821503   0.50576631    2588.7683 
   77000   0.91379701    7.1196012    14.792364    23.196992   0.44503769    2637.3776 
   78000    1.3825156    6.6215182    16.231384    24.797065   0.49013736    2598.6341 
   79000   0.70305202     9.262115    15.028032    25.278813   0.52485931    2569.4344 
   80000    1.6033287    7.2622149    14.849364     24.36626   0.46165063    2613.2066 
   81000   0.55828053    9.0775413    15.773315    25.635938   0.53872441    2566.0678 
   82000    1.0685909    6.6573406    16.602446    24.762492     0.494024    2615.9474 
   83000   0.73923228    6.6066747    15.919694    23.565914   0.47054295    2621.3199 
   84000   0.43997977    7.7014905    18.246363    26.566575   0.57981412    2550.8367 
   85000   0.92343623    8.2995075    14.844951    24.443041   0.48784504    2594.7547 
   86000    1.1601381    6.9746686    15.714203    24.320316    0.4774297    2612.9974 
   87000   0.35723338    7.5061546    17.724362    25.732876   0.55656459    2562.4205 
   88000   0.96223554    7.3129083    14.924089    23.590141   0.44983717    2649.7137 
   89000   0.57049792    9.4150694    14.152348     24.36968   0.49320487     2593.892 
   90000    1.4138568     6.326828    17.258469    25.573533   0.51628241    2579.0223 
   91000   0.73877437    8.4943165    14.716801    24.250019   0.48495905    2606.3414 
   92000   0.76304069    8.2946067    16.086084    25.453717   0.52629145     2579.784 
   93000    1.2376903    7.1250624    15.944822    24.810386   0.48682104    2621.7636 
   94000    1.2741254    6.8561124    16.171121    24.818972    0.4988684    2580.9173 
   95000    1.1831961    6.6332157    15.798043    24.095128   0.46888033    2629.7143 
   96000    0.7899221     9.151844    14.966522    25.229194   0.50909607    2601.9718 
   97000    1.0186846    8.0806427    17.519944    27.033112   0.58173091    2523.7234 
   98000   0.87616699    5.6217149    16.658011    23.511836   0.46050822    2646.1147 
   99000    1.3307712    9.3273213    14.087671     25.28639   0.49102162    2598.9665 
  100000    1.3635402    8.0336571    15.849383    25.800518   0.52580304     2558.483 
  101000   0.65842326    6.2799763    17.150941    24.356825   0.49805505    2607.6639 
  102000   0.64449319      9.01939     13.95816    23.883869    0.4686764    2625.6628 
  103000   0.63955624     6.776176    16.695241    24.370793   0.50352617    2596.7238 
  104000   0.79291879    9.0372997    15.551357    25.703699   0.52251916    2597.2646 
  105000   0.81683434    5.0474806    16.179932    22.376086   0.42944524    2667.1852 
  106000    1.6554586    7.7721956    15.591385     25.69157   0.50340366    2588.5726 
  107000    0.5198487    9.8806737    14.720125    25.331836    0.5249795    2575.8188 
  108000    1.4171453    7.2201736    15.208896     24.42193   0.47090359    2609.5148 
  109000     1.901812    8.0027868      15.4846     26.16181   0.51419025    2566.4145 
  110000    0.7685461    7.2015356    15.704728    23.987032   0.47942861    2622.3551 
  111000   0.82750312     8.876983    14.341394    24.382053   0.47306099    2636.3203 
  112000    1.0178684    7.1682618    16.999597    25.599236   0.53689958    2555.1765 
  113000   0.89961308    6.2086609    16.770678     24.24442   0.48584906    2620.8023 
  114000   0.67758526    8.8993873    14.613012    24.465254   0.49813909    2589.6374 
  115000    1.7401594    8.2995684    15.545009    26.291677   0.52214899    2569.5573 
  116000    0.6965466    6.7500228    16.533344    24.262886    0.4933433    2610.3973 
  117000    1.3387247    8.6214326    15.277651    25.781665   0.52183018     2563.387 
  118000    1.2755434    6.9473399    15.893382    24.634454    0.4844725    2610.9788 
  119000   0.54036422    7.3207522     16.69027    24.770909   0.51744722    2586.9635 
  120000    1.3432773    8.9521329    15.565229    26.406345   0.53780954    2559.3188 
  121000    0.8331525    7.4382148     15.35653    23.966365   0.47784822    2603.9382 
  122000   0.85104993     6.490259     16.78197    24.469018   0.49120252     2621.331 
  123000    1.5538236    6.7249435     15.54841    24.458418   0.47412152     2596.761 
  124000    1.0709459    5.5915569    16.113391    23.210965   0.44716591    2647.2071 
  125000    1.1234935     8.164407     15.92389     25.66821   0.53148762     2553.611 
  126000    0.6955652    8.3789781    15.573026    24.930142   0.50661765     2602.635 
  127000    1.1125742    8.0620313      14.3046    23.931189   0.45672258      2638.52 
  128000   0.87486241    9.6014291    16.194374    27.026078   0.58166515    2521.7075 
  129000    1.2447358    8.2233416    15.273274    25.247025   0.50497198    2584.7218 
  130000   0.31667942    5.2159935    17.550889    23.212213   0.47596515    2638.4654 
  131000   0.98826029    7.2602493    15.791599    24.441589   0.49306331    2591.1403 
  132000    1.3379059    7.4412296    16.373474    25.696134   0.52723016    2555.2773 
  133000   0.86000326    6.4389419    16.626186    24.274507    0.4917118    2605.7037 
  134000    1.1446163    6.9240297    16.311172    24.844818   0.49851653    2595.4744 
  135000     1.128349    7.0614332    16.692424    25.340598   0.51368509    2590.7851 
  136000   0.71481933    7.1271655    15.050176    23.182556   0.45523539    2625.6564 
  137000   0.83306414    10.412591    14.840145    26.424232     0.555569    2552.6102 
  138000    1.1132848    8.7687101    14.654083     24.98835   0.50071208    2578.0564 
  139000    1.1284014    6.7761397    15.995482    24.358436   0.48079379    2615.8972 
  140000    1.1597796    7.9867767    16.338042    25.955759   0.53163401    2571.2853 
  141000   0.62761996    8.2435977    14.633471     23.75966   0.47320955    2620.3493 
  142000    0.8071749    8.5144446    15.086501    24.736035   0.49630481    2605.4546 
  143000    1.1797985    8.1319945    16.251658    26.042744   0.53452119     2571.265 
  144000   0.54294542    8.3269334    15.884403    24.974853   0.51733416    2585.1434 
  145000    1.0387357    8.7227675    14.966914    25.150403   0.49394222    2609.6279 
  146000      1.18876    8.1145457    16.093919    25.880158   0.53211437     2556.273 
  147000   0.85058807    6.7282933    16.740501    24.664934   0.50904106    2586.1009 
  148000   0.68041215    8.7211519    15.834401    25.512383   0.52994698    2583.2034 
  149000   0.40059254    7.3381717    16.013964    23.915469   0.48970118    2606.1892 
  150000    0.8142229      8.95299    14.687059     24.78505   0.50106186    2594.6175 
  151000   0.97861099    8.1085947    16.366089    25.850855   0.53735276    2565.3459 
  152000    1.3306977     8.285812    15.660262    25.817367   0.52201625    2574.8414 
  153000   0.58791434    8.2856636    14.771545    23.883963   0.47951486    2607.9443 
  154000   0.72464581    6.7813691    17.180108    24.980511   0.51690907    2592.4772 
  155000    1.2175298     6.609751    16.399699    24.721601   0.49739861     2585.436 
  156000   0.97005897    7.2103742    15.449726    24.024245   0.47604099    2607.7075 
  157000     1.017123    8.3201752    15.340397    25.090902   0.50661192    2592.2691 
  158000    1.5533458    8.0416588    15.530421    25.756473    0.5084668    2586.7526 
  159000   0.56995839    7.0490669     16.28913    24.139701   0.49155163    2606.9367 
  160000    0.8005596    6.1349333    17.482358    24.743078   0.50723874    2610.4103 
  161000   0.98676445    8.1377536    15.877148    25.402539   0.52308816    2574.1041 
  162000    1.4020071    7.7651618    14.658037    24.394771   0.46249925     2623.257 
  163000    1.1047755     7.184218    15.507961    24.245769   0.46958167     2641.177 
  164000     1.377233    7.8218401    15.701669    25.460243   0.51261256    2569.6316 
  165000    1.0914041    8.9095871    14.202529    24.646903    0.4808873    2606.4968 
  166000    1.6016914    6.9756229    15.872141    25.100143   0.48806867    2599.9415 
  167000    1.3495503    7.0603473    15.989306    24.947458   0.49911162    2576.5388 
  168000    1.3073937    6.3675666    15.866656    24.072745   0.46098081    2632.5289 
  169000   0.96675952    8.3813997      15.5618    25.302705   0.51665332    2574.2176 
  170000   0.78089885    8.6254245    14.044347     23.76791   0.46801954    2611.4812 
  171000   0.94141756     8.382276     15.47458    25.180724   0.51007067    2594.2644 
  172000      0.85329    7.7421609    17.600349    26.542449   0.57830249    2521.3896 
  173000    1.2195411    6.7794211     15.88364     24.37804   0.47763851    2611.7055 
  174000   0.78701537    9.0718446    15.241515      25.4201   0.51950034    2599.8294 
  175000    1.2343435    9.0160073    14.481826    25.233629   0.50282923    2574.3992 
  176000    1.9657189    6.1490176    14.609081    23.522391   0.41715651    2667.2182 
  177000    1.3117917    6.7697634    18.357433    26.971903   0.57219866    2541.8278 
  178000   0.87337331    7.0941734    16.648698    24.971053   0.51951092    2567.6199 
  179000    1.1673727    6.6104674    15.068797    23.320883   0.44093412    2652.9553 
  180000   0.90402859    7.1260223    16.043487      24.4408   0.49630623    2585.7971 
  181000   0.74346355     6.828509    17.873168    25.747173   0.54698813    2563.3985 
  182000    1.0906448    5.9296454    17.199555     24.66292   0.49462802    2609.2264 
  183000    0.8654962    8.7679313     14.07782    24.062855   0.47603621    2602.6959 
  184000   0.38686986     10.87689    14.630822    26.051747   0.55671903    2548.8515 
  185000    1.2271444    7.6667868    15.221866    24.614324    0.4862174    2598.3292 
  186000   0.98637976    7.8361546    14.545892    23.769143   0.45970756     2634.835 
  187000    1.0042881    8.2175741    15.104706     24.73456   0.49914573      2580.44 
  188000    1.2735516    8.5408116    15.114316    25.446059   0.51091271    2578.3553 
  189000     1.305073     7.494364    15.249236    24.578859   0.48301432    2593.1151 
  190000    1.3635752    6.4919096    15.818646    24.228083   0.46706162    2623.2217 
  191000   0.99458209    8.5620362    15.344407    25.305074   0.51915695    2566.9914 
  192000    1.2911358    10.191096    14.232916    26.239672   0.52490401    2573.7321 
  193000   0.77593877    7.6746913    15.298393    24.064248   0.47805924     2616.916 
  194000   0.96602375    7.4653346    15.879801    24.703607   0.50258103    2579.1762 
  195000    1.3568451    9.8600439    15.057262     26.82537   0.55589843    2534.1645 
  196000   0.62924186    6.1940948    16.607881    23.686848   0.48217546    2612.2565 
  197000    1.0187822    9.2432388    14.927614    25.603516   0.52005949    2580.8645 
  198000   0.35709837    7.2896995     17.53059    25.322459   0.54830386    2562.5393 
  199000   0.84218062    6.7558719    16.195727    24.135915   0.48055458    2616.7423 
  200000   0.74540747    9.6496377     14.45584    25.153707   0.51444394    2576.8666 
  201000   0.91563972    9.8984082     15.06947    26.255497   0.54298344    2569.3061 
  202000   0.51794609    7.6723482    15.477899    23.878609   0.48229824    2619.0402 
  203000   0.77191494    9.8197558      14.6723    25.577561   0.52567867    2573.5258 
  204000   0.58971394    10.444158    15.090188    26.363632   0.56559785    2535.9854 
  205000    1.3693172     7.352378     15.02357     24.30155   0.46667372    2614.2112 
  206000    1.0029205    8.6040609    14.875329    24.889747   0.50528544    2569.5743 
  207000   0.85991293    9.9236193    15.209729    26.342601   0.55234463    2548.3349 
  208000   0.41918238    8.7607718    14.901847    24.252095   0.50115257    2593.6361 
  209000   0.60230199    5.4260871    18.152181    24.425256   0.50396372    2611.5867 
  210000   0.98986382    7.3343701    15.966682    24.693048   0.50278338    2580.1424 
  211000   0.76617296    7.1625826    16.230096    24.470109   0.49159712    2615.0588 
  212000    1.1214017    7.8527896    15.445249    24.875009   0.49601476    2592.9473 
  213000    1.0981121    5.9096916    15.810092    23.264003   0.44766832    2635.6524 
  214000   0.88029927    8.1271805    15.684697    25.049798   0.50912498    2592.4142 
  215000    1.0299608    10.251494    15.140403    26.840279   0.56552761    2529.8435 
  216000   0.95699378    7.3116719    16.197955    24.855399   0.49746572    2605.2582 
  217000   0.55148997    6.7167723    16.376129    23.868434   0.48627745    2614.1806 
  218000   0.74890607    8.0396702    15.791583    24.884402     0.511044    2584.2866 
  219000   0.95264216    10.498541    14.508814    26.347008   0.54967718    2543.8293 
  220000    1.1004821    7.8874158    13.781673    23.216641   0.42812322     2664.634 
  221000    1.0544872     6.798731    15.758528    24.040132   0.47388704    2614.0545 
  222000    1.4315877    7.2890584    15.879471    25.181699   0.49646693    2596.6161 
  223000    1.2225377    6.7792369    14.840992    23.339422   0.43925962    2648.1396 
  224000   0.67673959    7.4896746     17.46346    25.904799     0.552911    2557.7502 
  225000    1.0820794    7.0005819    15.630681    24.152937   0.47308886    2621.7214 
  226000    1.5104559      6.45379    15.606312     24.18418   0.46450382     2613.138 
  227000    1.0999874     8.658873    15.973163    26.178893   0.53918002    2569.0991 
  228000   0.93231518    6.1783466    16.548698    24.038112   0.47865235    2616.5783 
  229000   0.98898391    7.6116954    15.542334    24.544788   0.48634375    2614.2146 
  230000   0.65721201    7.8819562    16.829713    25.635874   0.54306463    2562.2085 
  231000    1.0428502    6.1550168    16.538463    24.159988    0.4769117    2618.4064 
  232000    1.2348078    5.3798565    16.657716    23.774021   0.45253378      2654.96 
  233000   0.52695739    6.8025319    17.180179    24.723745   0.51603409    2593.5086 
  234000   0.84910404    8.7284713    17.324853    27.247377   0.58595727    2549.5054 
  235000    1.0268592    7.2881482    16.069382    24.801551   0.49882724     2595.686 
  236000   0.86842887     10.25727    15.280659    26.759157   0.56674883    2537.2123 
  237000   0.82471537    8.2494035    14.651369    24.060529   0.47755251    2608.5878 
  238000   0.67257722    7.4229724    16.235655    24.604439   0.50918835    2591.8791 
  239000    0.7564788    7.6820951    16.392862    25.138755   0.52406564    2570.8979 
  240000    1.1920659     6.247585     15.69197    23.615898   0.45569437    2633.3007 
  241000     1.108017    7.4996457    16.157407    25.215202   0.50661968    2591.9145 
  242000    1.6742064    6.8490537     16.03516    25.238567   0.49416768    2585.3677 
  243000    1.1044358    8.1300702    14.647132    24.330315   0.47001884      2628.54 
  244000   0.68206834    8.8385222     16.45399    26.251671   0.56068106     2546.521 
  245000    1.5226303    6.1949562    15.483687    23.819842   0.44582349    2643.0217 
  246000   0.57815749    6.9684234    16.384972    24.166429   0.50025495    2591.8057 
  247000    1.4169293    7.3978583    15.282465     24.67288    0.4773668     2608.881 
  248000    1.0168232    7.4816119    15.602131    24.513651   0.49473704    2584.0769 
  249000    1.0025484     7.748371    16.866078    26.024283   0.54275325     2568.922 
  250000   0.78690357    7.2696924    15.399154    23.775429    0.4751848    2607.5061 
  251000   0.63887317    6.5986501    15.757606    23.254672   0.45530217    2662.8481 
  252000   0.92348366     7.389611    17.670127    26.358387   0.56535735    2537.7932 
  253000    1.2490331    7.7276878    15.525674    25.009815   0.49460872    2601.8927 
  254000   0.87520196    7.2694744    15.601697    24.101925   0.48473291    2594.3303 
  255000    1.0326895    8.6397216    15.965457    26.057398   0.53960666     2558.921 
  256000   0.53757772    7.8176917    16.905991    25.479651   0.54831378    2549.3274 
  257000    1.5137666    6.1630249    15.793086    24.084845   0.45965519    2623.1403 
  258000   0.68836504    7.1869216    16.344191    24.499126    0.5036157    2586.4434 
  259000    1.6618619    7.0018156    16.776216    26.115025   0.52566849    2565.9101 
  260000   0.36054455    6.6917005    15.624139    22.822855   0.44758425     2666.567 
  261000   0.74339621    7.9078834    16.373969    25.327253   0.52501414      2590.63 
  262000   0.91600289    7.4984789    16.798692      25.5853   0.52928553    2584.5302 
  263000   0.93934002    7.1029613    15.187397    23.611305   0.45527357    2633.7962 
  264000    1.0916084    7.5352442    16.164145    25.234464   0.50590615    2615.8985 
  265000   0.98330193    8.0727465    16.804893    26.260408   0.55339628    2555.4136 
  266000   0.81972634    7.1677754    16.778989    25.099504   0.51710902    2587.3242 
  267000    1.3321766    5.5386859    15.681845    23.093904   0.43355153    2654.4789 
  268000    0.9648969    7.3537755    15.682933    24.393595   0.48405872    2608.9031 
  269000     1.031062    6.8594153    17.424604     25.73395   0.53604883    2570.2344 
  270000   0.57306329    8.0893258    15.371715    24.266911   0.49415859    2599.3106 
  271000    1.1067974    7.3331934    14.930947    23.820574   0.45853121    2636.8824 
  272000    0.7083959    8.7103061    15.450308    25.156796   0.51704762    2584.9164 
  273000   0.92270138    7.4944291    16.171469    24.963447   0.51358977    2572.5283 
  274000    0.6105584    7.4290057    16.606585    24.894188   0.51957389    2588.7243 
  275000   0.88380907    6.8456097    14.673679    22.762145   0.43071294    2660.5087 
  276000    1.2935156    7.5151867     17.55765    26.891843   0.56802845    2539.4052 
  277000    1.4188481    8.8399247    15.059501    25.894681   0.50998508    2603.4125 
  278000    1.1944599    6.6312856    15.282622    23.593617   0.45416871    2627.2966 
  279000    1.7163527     8.304993    15.846194    26.564808   0.53229757    2560.6991 
  280000   0.72838678    7.6045171    16.084687    24.713498   0.50231831     2596.518 
  281000    1.1085071    9.9378961    15.721082    27.217816   0.57224746    2540.9659 
  282000   0.92380636    7.9800247    15.072205    24.351332   0.48544068    2598.6476 
  283000    1.3817596    8.4333201    14.949885    25.326305    0.4927624    2614.8106 
  284000    1.3885236    7.5365669    14.864859    24.354037   0.46973677    2607.0894 
  285000    1.0943115    9.0836734    15.151177    25.773726   0.52480358    2569.1345 
  286000   0.85768627    6.3612661    16.253313      23.8207   0.47437098    2614.8244 
  287000    1.0366231    7.2989951    15.860447    24.617194   0.49207311    2603.8385 
  288000   0.90317963    7.8385869    16.427346     25.53603   0.53325805    2554.7173 
  289000   0.90557022    6.9436197    16.114274    24.331352   0.48436816    2620.1376 
  290000    1.2324659    7.4461817    15.288543    24.467879   0.48365151    2590.2922 
  291000   0.95677863    8.2425541    17.348729    26.936753   0.58243576    2529.6018 
  292000   0.99710742    8.0322794    14.369431    23.803893   0.45967817     2621.904 
  293000    1.1618145    7.9919403    15.177931    24.803673   0.49416155    2587.2869 
  294000   0.60209425    6.7172886    18.686159    26.250143   0.57189883    2548.3371 
  295000    1.2477288    7.9236992    14.254462     23.93278   0.45525696    2621.8448 
  296000   0.86302579    9.1646761    14.341933    24.720239   0.49738963    2583.9789 
  297000      1.85805    7.2419324    15.186676    25.041492   0.47533876    2602.2764 
  298000    1.5306267     7.083279     16.07872    25.314442   0.50379437    2575.4598 
  299000   0.45285331    5.5266862    17.958989      24.1225   0.49899464    2618.9566 
  300000   0.74370146    9.1197216    14.280431    24.445982   0.49177911    2596.0543 
  301000   0.92496534    8.3250843    15.751312    25.377129   0.51418136    2596.4523 
  302000    0.9592654    7.4212048     15.27339    24.043562   0.46729281    2630.1262 
  303000   0.87413613    6.5184187     16.27042    24.018092   0.47850694     2621.928 
  304000    1.1528296    7.8386254    15.629897    25.089689   0.50375272    2581.7332 
  305000    1.1311225    8.7051244    15.205123    25.500888   0.51787438    2575.9723 
  306000   0.92046522    10.255664    13.943146    25.493215   0.50997699    2594.5343 
  307000   0.62775493    6.9754253    16.743691    24.601897   0.51077933    2589.2722 
  308000   0.67018161    7.6346774    16.339611    24.916732   0.51156883    2601.4574 
  309000   0.53108063    8.0388554    15.179085    23.964773   0.48753355    2601.6002 
  310000    1.0979454    7.7505281    16.223732    25.518246   0.52036455    2580.5871 
  311000   0.90310673    7.1139874    17.088089     25.47207   0.53582294    2553.6443 
  312000    1.1228819     8.105562    14.626735    24.311349   0.47252472    2621.7807 
  313000    1.1360191    7.3585741    14.502906    23.459007   0.44644346    2631.8484 
  314000   0.68413758    7.5482838    16.457319    24.967671   0.51485892    2602.4886 
  315000     1.096619    7.6736087     15.23617    24.451899   0.48472845    2601.4993 
  316000   0.79755002    6.0753672    16.527632    23.724554   0.47621458    2615.9262 
  317000    1.5027804    7.2881236    15.995236    25.396645   0.50714679    2571.0937 
  318000   0.44107223    6.6687215    17.262469    24.551448   0.51176656     2601.041 
  319000   0.78172482    7.5366368    14.635108    23.271045   0.45023137    2640.2559 
  320000    1.3095365    6.9682912    15.670244    24.480071   0.48078582    2600.0892 
  321000    1.2989918    9.6048526    15.382068    26.813628   0.54809449    2560.3223 
  322000   0.75182639    7.9610763    15.561117    24.579449   0.50011382     2596.071 
  323000   0.92685503    6.5641035    16.290773    24.158266   0.48117002    2614.9417 
  324000      1.26654    8.0846104    16.268028    26.133711   0.53638714    2555.1119 
  325000   0.75574185    8.3309219    15.145053    24.538737   0.49900966    2592.1617 
  326000    1.4426476    8.4958512    14.843611    25.368185   0.48464434    2618.3488 
  327000   0.57600819    7.7520987     17.96769      26.5298    0.5794779     2542.904 
  328000    1.0045184    8.0431233    15.355373      24.8111   0.49736768    2587.6981 
  329000    1.5162908    6.3415839    15.432422     23.90629    0.4513375    2631.2667 
  330000   0.55384236    7.4531962    16.058996    24.291033   0.49853082    2598.8438 
  331000   0.98780017    7.5175726    16.766053     25.67272   0.53194242    2578.5442 
  332000   0.85919847     8.384835    15.658692    25.251775   0.51915467    2574.9262 
  333000    1.0534445    6.8353302    15.966678    24.283415   0.46640086    2656.1696 
  334000   0.72170481    7.2374826    17.298009    25.550389   0.53720606    2572.3216 
  335000    1.2083301    6.8188586    16.919427      25.4375   0.51912319    2577.5626 
  336000   0.58428161    7.7628115    15.436631    24.021089   0.47872446    2626.4818 
  337000   0.63980682    9.5750439     14.52933    25.004102   0.51345821    2574.4352 
  338000    1.0850384    7.0414108    16.816383    25.383629   0.51551191    2599.3263 
  339000   0.71710813     8.219416    16.197824    25.425673   0.53301035    2574.4988 
  340000    1.2358065    9.1097215    13.518838    24.366413   0.46246484    2626.0961 
  341000   0.69466537      8.44405    14.976134    24.397057   0.48927375    2608.5525 
  342000   0.86774262     10.00403    15.517736    26.742029   0.57645001    2512.5521 
  343000    1.5003601    9.3786623    14.201598    25.690141    0.5052436    2576.9025 
  344000   0.98188628     8.754427    14.045838    24.181042   0.47369702    2609.2045 
  345000   0.61383965    8.6500416    15.730921    25.244175   0.52357756    2591.3798 
  346000   0.58187618    7.9030694    15.158644    23.879977   0.47785254    2616.3796 
  347000   0.87691258    7.8618098    16.005954    25.100922   0.51159732    2595.2004 
  348000   0.54766733    7.3061055    17.470952    25.547214   0.55071332    2560.8701 
  349000    1.1279597    7.2261275    15.648247    24.460567   0.48284008    2610.4057 
  350000   0.99874017    8.0793185    15.630942    25.114739   0.51327199    2569.3556 
  351000    1.2001161     6.925213    16.667787    25.280663   0.51152419    2586.3628 
  352000    1.3165827    8.4887452    14.049491    24.389681   0.46499731    2618.8106 
  353000   0.98984228    7.4443173    15.981056    24.817339   0.50792386    2568.8406 
  354000    1.0802646    8.2548481    16.665233    26.439204   0.55396259    2551.7267 
  355000    1.1289061    6.3650504    15.796454    23.749028   0.46315638    2620.5569 
  356000    1.1881359    7.6726891    15.892771    25.236276   0.50306455    2607.0615 
  357000   0.38783955    9.5212505    15.694067    25.760716   0.55225788    2557.1755 
  358000   0.90277953    6.6110486    15.823397     23.70398   0.46260425    2637.3326 
  359000   0.98286198    6.5494577    15.527691    23.459299    0.4569771    2627.9914 
  360000   0.99718353    9.5325187    15.831992      26.7668   0.56438899     2544.055 
  361000   0.60213096     7.278761    16.570234    24.695742   0.51461348     2577.212 
  362000    1.0438159    7.6062456    15.188814    24.262926   0.47466409    2626.2861 
  363000   0.75242597    7.4592302    15.959887    24.477216   0.49999412    2593.3557 
  364000   0.99314629    9.2566586    16.854816    27.508086   0.58979488    2534.4186 
  365000   0.50602669    7.6411212    15.781545    24.134266   0.49548557    2606.1687 
  366000    1.4209355     7.824271    15.165115    24.987577   0.48437423    2612.2058 
  367000   0.90244524     8.424664    16.707085    26.400813   0.55706771    2548.0327 
  368000    1.0883287    7.7113788    15.552784    24.794625    0.4919405    2599.9884 
  369000    1.0701486    8.4143257     14.86909    24.788312   0.49167197    2602.6548 
  370000    1.0635467    7.9730718    15.910426     25.37911   0.52062811    2574.8895 
  371000   0.98615544    7.3565457    15.644996    24.388323   0.48390304    2608.1276 
  372000   0.66662559    5.8395027    16.601607    23.378552   0.46217668    2648.6999 
  373000    1.6159231    7.5987538     15.94493    25.816075   0.51704829    2562.6928 
  374000   0.73854443    7.6341509     15.96112    24.633849   0.50031477    2601.2505 
  375000    1.2100902     7.003909    15.541325    24.246924   0.47137493    2622.6662 
  376000    1.1851128    8.8309133     14.86519    25.362668   0.51083776    2572.4821 
  377000    1.6512878    7.2513417    14.711351    24.284816   0.45347433    2632.1022 
  378000   0.88911239    7.3360683    16.057363    24.643746    0.4992025    2600.0519 
  379000   0.66566818    6.5649612    17.216191    24.717248   0.52005109    2574.6569 
  380000    1.2170219    6.5379466    16.381069    24.630453   0.48709204    2606.2655 
  381000   0.50768933     7.389462     15.02236     23.12576   0.46121815    2629.1749 
  382000    1.0587238    6.5374693     17.33768    25.363979   0.52179314    2585.6953 
  383000    1.6465146    6.1644889    17.067983    25.547883   0.50082634    2597.6859 
  384000   0.84751014    6.9373128    15.714642    23.843766   0.47262647    2622.6433 
  385000   0.90795033    9.4461106    15.041221    25.764136   0.51814688    2608.9524 
  386000    1.0243499    8.1245283    16.720353    26.285373   0.54707427    2558.4779 
  387000   0.78773554    7.2086004    16.123623    24.439976   0.49333507    2606.7954 
  388000    1.0713763    6.3289719    15.983677    23.819272   0.46092752    2641.4073 
  389000   0.80528844    10.912375    15.405201    27.450013   0.59578721    2513.9676 
  390000    1.4786914     5.604829    17.002857    24.687096   0.48352194     2610.128 
  391000   0.52486787    7.5063992    15.688797    23.933291   0.49013237    2608.5915 
  392000    1.5165862    8.0405652    15.492195     25.66546   0.50843311    2582.2051 
  393000   0.61693759    8.6847958    15.491989    25.044353   0.51436655    2587.0521 
  394000   0.94635129    5.7995867    16.498577     23.62897   0.46949552    2620.3001 
  395000    1.4235996    9.2517718    14.465441     25.71915   0.50681697    2586.5166 
  396000   0.74877319    8.7643036    15.654947    25.472213   0.53186314    2564.3623 
  397000    0.9390138    7.0061027    15.297019     23.62361   0.45595646    2647.1782 
  398000   0.60719966    7.7890275    16.296887    24.939789   0.52250355    2571.3181 
  399000    1.4854502    9.0026455    14.955963    26.047523   0.52231103    2564.7644 
  400000   0.71060932    5.5825751    16.798388    23.380257   0.47239803    2618.1197 
  401000    1.2578673    6.1389268    16.707824    24.615626   0.48607574    2614.5503 
  402000    1.4260155    7.3451613    16.309722    25.660217   0.51226128    2583.6764 
  403000   0.83523396    7.2397797    14.968989    23.383316    0.4543077    2637.1892 
  404000    1.3039062    8.2230114    15.576741    25.633371   0.51131304    2589.3474 
  405000    1.4165451    8.3814928    15.539022    25.912532   0.51972084    2577.4162 
  406000   0.61907934    6.1556482    16.625274    23.651502    0.4810138    2620.1984 
  407000    0.9316708    9.4861747    14.354686    25.151023   0.50410428    2591.3378 
  408000    1.1527712    7.1578715     16.77099    25.549946   0.52765452    2560.4739 
  409000   0.96096141    7.5712163    15.119963    24.042531   0.47301019    2616.0065 
  410000    1.1501968    6.5669443    16.434669    24.619077   0.48054871    2629.1053 
  411000   0.99288375    9.0965209    15.385272    25.878036   0.53825319    2553.8714 
  412000   0.89050525     7.539001    15.092247    23.883521   0.47204895     2608.531 
  413000    1.1867778    6.6129177    16.399664    24.681488   0.48791611    2611.8995 
  414000   0.87403557    6.8674543    17.137651    25.234218   0.52474603    2570.1896 
  415000   0.74126418    7.8659916    16.155905    25.064299   0.51952148    2585.8369 
  416000   0.96834188    5.8820568    15.970131    23.213918   0.44863225    2643.4218 
  417000    1.0576238    8.5722277    15.449335    25.508846   0.52181681    2569.7305 
  418000    1.3301078    7.3051304    15.813239    24.988834   0.49127689    2607.6659 
  419000   0.78843272    7.6898916    16.262951    25.061576   0.51886603    2581.5096 
  420000   0.79076409     8.464175    16.171733     25.74792   0.53908309    2565.7476 
  421000   0.67479171    8.3244675    15.676786    24.950179   0.50277723    2612.7271 
  422000    1.4884092    7.0532483    15.476685    24.623009   0.47707829    2603.5498 
  423000    1.0222148     7.231073     16.67038    25.338943   0.52586689    2567.2858 
  424000    0.4243498    8.0781481     15.67827     24.35316   0.50125262    2595.4538 
  425000    1.1032376    7.4354171    14.924029    23.910874   0.46130974    2624.7234 
  426000   0.41552067     8.989405    16.051937    25.625668   0.55035496    2554.5446 
  427000    1.5656039    6.0951735      16.5634    24.860204    0.4858998    2604.4321 
  428000   0.86728814     8.435405    14.351277    24.006306   0.47467124    2601.9312 
  429000   0.91061521    7.5368722    15.791075      24.6085   0.49765367    2591.3355 
  430000    1.9216467    8.8503412    15.160108    26.712765   0.52576356    2568.5229 
  431000    1.1122993    7.3697542    14.021243    22.955168   0.42714749    2654.4611 
  432000   0.96204795    7.2882008    16.987738    25.628818   0.53212919    2579.1264 
  433000    1.0614981    7.6569804    17.211255    26.360967   0.55809138    2550.3316 
  434000   0.57291957    6.9715603    15.536717    23.313946   0.46390843    2636.2994 
  435000    1.2034474    6.0709233     16.74139    24.504661   0.48586926    2611.9487 
  436000    1.1212977    7.3037229    16.259734    25.140282    0.5136176    2569.8595 
  437000   0.52292282    9.5462173    14.449797    24.731374   0.50200647    2603.4136 
  438000   0.89462743    8.5525861    15.013644      24.8243   0.50616802    2576.4877 
  439000   0.70560692    8.6249591      15.9377    25.554919   0.52838887    2581.9024 
  440000   0.92525353    6.0014549    16.404064    23.706656   0.47159037    2614.7378 
  441000    1.1926873     7.950539    16.210035    25.837791   0.53042615    2563.2699 
  442000    1.0007259    8.0366432    16.708836     26.15275   0.54566047    2567.5444 
  443000   0.84068072    6.7087534     14.78832     22.67928   0.42909991    2663.0394 
  444000    1.1587895    7.8906775    16.183327    25.703552   0.52389093    2575.1155 
  445000    1.2936518    8.9077744    14.970453    25.697425   0.51452806    2571.8308 
  446000   0.86410311    8.2658242    14.380797    23.861766    0.4720225    2601.2309 
  447000   0.43889791    8.6506784    15.904593    25.172471   0.52706363    2592.8543 
  448000    1.4527485    8.6285621    15.178031    25.849521   0.51329517    2581.9422 
  449000    1.0794181    8.3919181      14.3315     24.24135   0.47341731    2609.1519 
  450000    1.4204368    8.1342873    15.971634    26.103411   0.53193713    2556.8171 
  451000    1.3901564    8.0125626    15.456156    25.423626   0.50350654    2592.8853 
  452000    1.0675727    6.6826221     14.81246    22.996357   0.43438228    2654.8233 
  453000   0.94391538    7.7332699    17.097163    26.157814   0.55492074    2543.8896 
  454000    0.8883129    7.8822513    16.156684    25.288125   0.52106307    2578.6383 
  455000    1.0287181    6.6574704    15.894032    23.998137   0.47709029    2606.7038 
  456000    1.7835559    8.0949509    15.967482    26.570558   0.53416468    2553.2008 
  457000   0.98200884    8.3077511    14.696721    24.385422   0.47557211    2618.6228 
  458000   0.49284952    8.1348876    15.307193     24.13515   0.49063304    2608.7529 
  459000    1.0784291    8.3221551    18.128135    27.966831   0.61411405    2510.6671 
  460000   0.41760835    4.7977283    18.701146    24.086136   0.50755933    2611.8896 
  461000    1.2841661    7.9385138    14.899679    24.644051   0.48429191     2596.876 
  462000    1.1803922     9.045594    14.902069    25.607589    0.5146694    2581.8644 
  463000    1.5275403    6.5987512    15.442234    24.189089   0.46556401    2603.9702 
  464000   0.39196935    7.7827169    16.178403    24.512326   0.50568021    2616.4051 
  465000     1.072696    7.4268798    15.787235    24.722594   0.50236069    2571.3137 
  466000    1.1588691    7.5428166    15.427472    24.599948   0.48569039    2599.9479 
  467000   0.88702075    7.2693059     15.44299    23.959669   0.47339487    2625.5276 
  468000   0.70969761     6.646439    18.533625    26.178077   0.56842191    2544.9791 
  469000    1.4103113    8.4613843    14.670652    25.115287   0.49399365    2581.8421 
  470000   0.97259081    7.1405928     13.89575    22.404049   0.41420361    2660.4007 
  471000   0.64692896    6.9236881     17.96865    25.802082    0.5494718    2570.0322 
  472000    1.1651552    5.9495111    16.614891    24.202902   0.47874213    2608.1353 
  473000   0.95727624    6.4318471    16.631958    24.409975   0.49200221    2606.3046 
  474000   0.82578394    5.6628228    19.001411    25.825492   0.54418207    2578.8784 
  475000   0.40116457    5.8484281    17.836578    24.249144   0.50591475     2604.948 
  476000   0.55414907    6.2007255    17.151619    24.131616   0.48571962     2630.979 
  477000   0.68191552    6.4510928    18.508527    25.918564   0.56709215    2530.6578 
  478000   0.94328545    5.3184632    17.441009    24.085967   0.48044911    2627.2835 
  479000   0.78891149    5.6532327    17.343403    24.106042    0.4904965    2608.3457 
  480000    1.7827975    7.5030879    16.251304    26.261451    0.5245732    2562.3181 
  481000   0.80929765    8.3310142      15.1114    24.580489   0.49330121    2598.7682 
  482000    1.0352953    6.7070431    15.419305    23.582232   0.46098358    2616.6931 
  483000    1.0801237    6.4519681    17.048878     25.01977   0.50341544    2608.6972 
  484000   0.45722814    7.4249963    16.277326      24.3453   0.50410489    2597.2917 
  485000   0.63476523    5.8345449    18.237371    24.964555   0.51339578    2614.1514 
  486000   0.79326087     6.383983    18.207859    25.707365   0.54820043     2555.494 
  487000    1.0692518    5.7146502    16.858918    24.077204   0.47290913    2643.1468 
  488000   0.95613442    5.5512774    17.491568    24.387409    0.4937244    2606.2731 
  489000   0.77408451     7.008259    16.647522    24.744338    0.5079389    2596.8251 
  490000   0.83034925    9.3440995    14.950437    25.462215   0.51724373    2585.6569 
  491000   0.81273283    8.9251409    14.546716    24.614762   0.49253055     2600.941 
  492000    1.3724701     7.179557    16.659573    25.769166    0.5239616     2568.243 
  493000    1.1703854    5.9570158    15.913185    23.516055   0.45808854    2617.8324 
  494000    1.4035598    6.7108125    15.882921    24.567489   0.47530616    2619.8053 
  495000   0.82965688    8.5804799    16.027223    25.774408   0.53554082    2580.3758 
  496000   0.81821338     8.599842     15.23309    24.983544   0.50137966    2603.7329 
  497000   0.92043996    7.7629027    15.290483    24.347755   0.48446899     2608.026 
  498000    1.2760608    7.7355645    16.803993    26.334018   0.54176908    2567.5178 
  499000    1.2028165    6.6716606    16.162467    24.525588    0.4895607    2592.8535 
  500000   0.82895087    5.2318121    17.985351    24.382875   0.49604203    2617.7829 
  501000   0.83579534    8.0969361    16.245678    25.517951    0.5353728    2559.6303 
  502000   0.98438441    7.1445214    16.899227    25.428039   0.52267273    2584.3196 
  503000   0.76897299     7.978582     14.34586    23.405811   0.45525752    2623.5195 
  504000    1.2691897     5.976881    16.704525    24.466204    0.4811105    2619.1414 
  505000   0.60786135    7.1883758    17.137642    25.180823   0.53201747    2576.3342 
  506000    1.4240674    6.5759559    14.991304    23.569855   0.43746159    2647.9745 
  507000     1.244758    6.6422169    16.513853    24.906511   0.50010009    2587.4547 
  508000   0.93000412    7.8510173     16.32222    25.481056   0.52460565    2580.3515 
  509000   0.80311695    6.4845705    15.535154    23.149108   0.45186329     2645.922 
  510000   0.34495671    7.1647532     18.55722    26.207069   0.57881015    2542.4946 
  511000    1.0147211    7.6823406    15.786758     24.89605   0.50213682    2599.7065 
  512000   0.43914939    8.3523593    15.334884    24.304797   0.50177697    2587.0622 
  513000   0.82905518    8.1882163    16.704176    26.058252   0.54843284    2567.9674 
  514000    1.3748639    7.9790878     14.62276     24.53525    0.4707241    2613.5858 
  515000   0.97480339    6.4908441    15.778651    23.640313   0.46334133    2627.4848 
  516000    1.1971094    6.0301613    17.312772    25.026368    0.5054776    2593.3251 
  517000   0.93258726    6.3295062    17.062815    24.703772   0.49585749    2620.9676 
  518000   0.72239805    7.3614975    16.019106    24.396475   0.49423315     2608.291 
  519000   0.73572777    7.0706914    17.784642     25.88995   0.55606091    2542.9169 
  520000   0.97628658    8.9488546    13.758682     24.08044   0.46077003    2634.4734 
  521000   0.55952765    8.4377443     14.93074     24.15532   0.49028628    2597.8678 
  522000   0.76824468    8.0251946    16.181387    25.286926   0.52555899    2577.4055 
  523000   0.84296437    6.8099672    15.827604     23.82299   0.47457448    2619.7439 
  524000    1.3469184    7.6242653    15.559919    25.078288   0.50061412     2583.895 
  525000   0.89122431    11.526147    13.583915    26.363346   0.53786702     2578.582 
  526000   0.40780368    9.6599178    14.462206    24.695598   0.50413637    2610.2159 
  527000   0.48063176    5.5058594    18.973954    25.155702   0.54297153    2567.7111 
  528000   0.76631377    5.4244559    17.549814    24.051899   0.48771413    2619.6342 
  529000    1.0166996    7.7194648    15.391321     24.54052   0.49011036    2594.8228 
  530000   0.99801548    6.5761346    17.357203    25.336797   0.52831161    2565.7993 
  531000   0.97746456     7.765172    14.798716    23.938447   0.46541923    2623.6773 
  532000   0.71608489    8.9402133    16.072355    26.019563   0.54073539    2586.7106 
  533000   0.98206343    6.8691851     16.35667    24.606882   0.49422905    2601.1428 
  534000   0.74259513    6.7216379    15.479572    23.245484   0.46137572    2617.8419 
  535000    1.0067123    6.0015717    17.720627    25.137888   0.51434932    2590.5234 
  536000   0.67641247    5.9204503    17.186583    24.058238    0.4938438    2599.0286 
  537000    1.0143868    8.7217888    14.734098    24.882368   0.50035939    2581.6851 
  538000    1.1738518    7.6405923    16.942698     26.23402   0.53782089    2577.2431 
  539000    1.1656389    5.4907699    15.237532    22.367482   0.41241921    2673.5637 
  540000   0.93358616    8.5755978     15.73814    25.626594   0.52713744    2574.1228 
  541000    1.1307406    7.8236223    16.266667    25.680393   0.52985238     2567.168 
  542000   0.86329531    6.7205366    16.250583    24.185128    0.4831287    2618.1755 
  543000    0.6945265    9.5062561    14.946002    25.428936   0.52419396    2577.1666 
  544000   0.81516711    7.9192545    16.077291    25.142874    0.5209673    2577.7772 
  545000    1.2182627    6.7997934     15.64905    24.162025   0.46851982    2632.1858 
  546000    1.0156547    7.9640396    16.001012    25.393316   0.52707754    2557.8194 
  547000    1.1938255    7.2365107     15.56646    24.481788   0.47910312    2613.6866 
  548000   0.80266554    7.8800204    15.441943    24.450712   0.49608562    2593.6845 
  549000    1.1152891    7.8609995    15.903394    25.332768    0.5161386    2573.0732 
  550000    1.1008457    6.7933237    15.795988    24.137376   0.47508715    2614.2814 
  551000    0.8580756    6.5192678    16.187398    23.913335   0.47386594    2622.0005 
  552000    1.2236721    8.4489221    16.304585    26.474296   0.55509107    2537.1801 
  553000    1.3666076     8.159014    14.353276    24.434082   0.46949975    2609.3778 
  554000   0.76831084    6.4978619    14.894285    22.472585   0.42831625    2660.4891 
  555000   0.68260934    7.1584008    17.076588    25.194908   0.52838228    2581.6565 
  556000   0.88025904    6.4897385    17.337848     25.06545    0.5145042    2602.2985 
  557000    1.3003434    5.7059166    16.464301    23.998825   0.46211833    2638.8918 
  558000    1.2875081    7.0746053    15.516025    24.401189   0.47771975    2606.3685 
  559000    1.1918481    6.2849395    16.606248    24.567224   0.48440421    2627.7614 
  560000   0.82963487    8.3882161    14.655865    24.210756   0.47624149    2613.3645 
  561000   0.60599281    8.4133484    16.241172    25.506697   0.54264159    2561.5428 
  562000    1.5209766    7.0109367    15.756101    24.905911   0.48758727    2596.1303 
  563000    1.0372746    8.3679911    14.979815    24.806473   0.49780672    2585.3279 
  564000    1.5397493    7.4510123    14.696942    24.313227   0.46054822    2620.8346 
  565000   0.78643819    8.5030655    15.833361    25.442355   0.52796979    2576.2072 
  566000   0.97803526    9.2641567    14.643683    25.283202   0.51385165    2575.7725 
  567000   0.94467524    5.5583516    17.329612    24.216413   0.48333906     2630.849 
  568000    1.1331247    7.7355919    15.966246    25.295295   0.51526981    2575.8593 
  569000    1.3181568    7.4652902    14.793526    24.112474   0.46310287    2619.4667 
  570000   0.96428802    6.7893538    16.137861    24.283245   0.48648858    2598.4069 
  571000    1.0949877     6.785488     15.79013    24.115444   0.47301675    2623.7742 
  572000   0.89587164    6.4802107    16.559332    24.299362   0.49576254    2587.9637 
  573000   0.56174991    8.4723745    15.380565      24.6429   0.50320225    2607.2021 
  574000   0.67595941    8.5753394    13.944362    23.470269   0.45939868    2625.1359 
  575000   0.72036177    10.154111    14.442789    25.609909   0.52810164    2582.1329 
  576000   0.63760565    9.3346795     15.35436    25.585673   0.53906539    2561.3137 
  577000    1.3595288     8.180905    14.591783    24.684525   0.47938203    2599.1024 
  578000    1.1161934    7.7789167    15.288486    24.637049   0.48982199     2598.687 
  579000      1.49168     7.371496    16.931306    26.400477   0.53175553    2591.7441 
  580000   0.71781615    8.3334901    15.704006    25.046925   0.51931065    2577.5837 
  581000    1.4173096    7.8361847    15.041232    24.870508   0.47960344    2618.9684 
  582000   0.89802128    8.6788146    14.702935    24.644592   0.49596627    2587.0122 
  583000   0.75949117    8.1585153    16.908954    26.135504   0.55807942     2546.828 
  584000   0.77947697    6.2367011     16.71793     24.05077   0.48314646    2620.9392 
  585000   0.53046556    7.4862214      15.9202    24.152389   0.49847566    2591.3942 
  586000   0.86003342     7.255082    17.688217    26.152721   0.55549661    2559.8919 
  587000   0.82140309    7.5902749    15.319133    24.064506   0.48454503    2595.7795 
  588000     1.081843    7.6236898    15.172145    24.317176   0.47398838    2624.4274 
  589000   0.87717055    6.8311077    17.309195    25.373823   0.52285671    2593.4407 
  590000   0.73281619    8.2391977     15.24236     24.51208   0.49533064    2601.9642 
  591000    1.5070527    8.5120478    14.233228    24.864568   0.47342856    2615.2357 
  592000   0.77663999    8.9284519    15.943636    25.964238   0.54873054    2549.8125 
  593000   0.89644337    7.2397085    14.749521    23.249853   0.44401485    2657.6122 
  594000    0.3641538    8.5033883    14.658539    23.674019   0.47565111    2628.5634 
  595000    1.2363931    9.6612913     15.93397    27.333939   0.58272709    2513.4421 
  596000     1.444598    6.5831355     14.64027    23.254871   0.42501859    2663.0868 
  597000    1.8248931    6.2507645    15.643867    24.460888   0.46168449    2615.4458 
  598000    1.0067263    7.3439953    16.905576     25.66528   0.53671287    2560.7684 
  599000   0.73956312    6.4917632    15.805758    23.337532    0.4627009     2627.627 
  600000    1.0409578    5.4760973    17.420024    24.359968   0.49055164    2612.4694 
  601000   0.69316224    6.0500834    18.086694    25.111537    0.5366625    2560.5646 
  602000    1.0671517    5.2825408    16.656214    23.439437   0.45353922    2649.3805 
  603000    1.1961025    6.8054251    17.025166     25.51261   0.51551709    2598.2884 
  604000    1.0368281    9.4608932    14.704691    25.623624   0.52220066    2566.3462 
  605000   0.93623002    8.0798851    14.731588    24.128047   0.47339764    2615.4838 
  606000    1.0619626    7.9204981    15.328795    24.742678   0.48754083    2620.0645 
  607000    1.2482063    7.4266029    15.979573    25.161466   0.50151881    2590.2099 
  608000    0.9408112    7.0135543    16.528893    24.865463   0.51162357    2582.0305 
  609000    1.2448168    5.2684655    16.739912    23.758901   0.45830449    2638.1926 
  610000   0.86723555    8.0350939    15.565255    24.819899    0.5038694    2586.0566 
  611000   0.68444734    8.7060205    16.471152    26.139677   0.55543473    2554.6867 
  612000    1.0820888    7.0367539    14.247112    22.805553   0.42691313    2648.1422 
  613000   0.74094291    8.1325597    17.223589      26.3981   0.56896388    2546.9057 
  614000    1.1055729    7.4027334    16.207814    25.165259   0.51277497    2576.8324 
  615000   0.94917599    7.8523175    14.866214     24.05331   0.47521722    2606.3119 
  616000   0.96014125    8.6188001    15.855664    25.824662   0.53312189     2576.215 
  617000    1.1548992     8.220154     15.82386    25.668091   0.52077637    2582.8817 
  618000   0.58397453    6.7422127     14.23438    21.797807   0.40315513    2690.4451 
  619000    1.1089838    7.1577342    16.095485    24.812727   0.50305053    2579.4016 
  620000    1.2659251     7.609818    16.758536    26.148561   0.53958577    2555.2767 
  621000   0.85192781    6.6641263    15.760963    23.623113   0.47197543    2610.6342 
  622000    0.7965705    7.6017288     16.01143    24.733336   0.50459104    2597.0452 
  623000    1.0691817    8.3847004    15.610559    25.498796   0.52527252    2557.5308 
  624000    1.1230331    7.8434021    15.090889    24.513557   0.48112298    2613.9383 
  625000    1.1763564    9.6315548    14.224933    25.510739    0.5059533      2589.01 
  626000   0.96769062    8.5882472    17.264612    27.213674   0.58940936    2519.7738 
  627000   0.89604215    7.1621281    15.190927    23.613114   0.45189535    2647.6688 
  628000   0.92936794    6.6911059    17.408738    25.406767   0.52603527    2584.2177 
  629000   0.92383106    6.9666421    16.697206    24.962986   0.51380644    2580.0283 
  630000    1.0440226    6.2796338    16.350323    24.098113   0.47493044    2617.6186 
  631000   0.46574319    7.7045848    16.554864    24.914401   0.52070549    2591.5592 
  632000   0.98440479     8.558289    15.326647    25.269255    0.5172058    2573.5746 
  633000    1.2186086    7.8659626    15.610745    25.190376   0.50107123    2600.4842 
  634000    1.2240517    6.7419631    15.352928    23.816213   0.45612027    2635.2917 
  635000    1.1271741    6.5362475    16.639818    24.761154   0.50014802    2584.6978 
  636000   0.71213445    7.2673443    16.670583    24.939367   0.51082914     2607.628 
  637000    1.1650256    7.3859219    14.740992    23.765231   0.45978846    2614.6492 
  638000   0.98551098    9.1020289     15.36523    25.853134   0.53081946    2575.4281 
  639000   0.93573995      6.22859    17.977191    25.521666   0.54190597    2551.7019 
  640000    1.4378082    8.2070331     14.68196    24.910911   0.48361639    2596.2271 
  641000   0.77845539    6.9207185    15.088126    23.103548   0.44926637      2635.88 
  642000   0.85992001    8.1787064    15.933331      25.3213   0.51948639    2583.6528 
  643000   0.81460075    8.0723104    15.704507     24.92235   0.51256495    2584.8008 
  644000    1.1619875    7.9390778    15.355826    24.928949   0.49671018     2587.959 
  645000   0.94498159    8.6255927    13.920813    23.875286   0.46419972    2613.1232 
  646000    1.2138136    9.9242951    15.623463    27.254683   0.57287543    2535.7114 
  647000    1.1722183    7.8789191    14.022821    23.550172   0.44696009    2632.5158 
  648000    1.2778806     8.005207    14.959555    24.761781    0.4881823    2589.9849 
  649000    1.3952275    6.8917533    16.697375    25.551167   0.51594003    2580.9293 
  650000    1.0796276    7.9845127     14.72001    24.222749   0.47102008     2616.716 
  651000    0.7792499    7.2593552    15.267202    23.622378   0.46943738     2610.968 
  652000   0.95449333    8.8892774    16.466142    26.697676    0.5606147     2553.208 
  653000    0.8929723    8.9468339     16.88452    27.087096   0.57570585    2551.0852 
  654000   0.81751204    5.7601796    15.053816    21.963622   0.40933448    2687.2227 
  655000   0.90496385     6.089088    17.726283    25.087976   0.51280791    2613.7875 
  656000    1.3016468    7.0296862    16.924193     25.78432   0.52403547    2580.1017 
  657000   0.86646733    7.7012393    14.721717    23.641426   0.46658373    2606.7457 
  658000    1.3935131    7.5101325    15.467006    24.936767   0.49098139    2592.3066 
  659000     0.611285     7.490614    17.189979    25.540213   0.55076013    2544.2397 
  660000   0.86934948    8.6767366    15.334218    25.233477   0.51328962    2588.7754 
  661000   0.70714497    7.0040776    15.927347    23.925847   0.48542152    2602.0576 
  662000   0.89216249    7.7986246    16.015774    25.069002   0.51532766    2583.8911 
  663000   0.93193971    8.2440504    15.874525    25.429115    0.5153086    2593.1582 
  664000   0.94068848    7.8917125    14.379508    23.594064   0.45762647    2622.5152 
  665000   0.95254699    7.0587256    16.255422    24.653667   0.49866891    2600.7737 
  666000    1.4389958     9.423567    15.720186    27.167341   0.56942627    2519.4569 
  667000   0.64827276    8.6462177    14.647828    24.205679   0.48646671    2606.1857 
  668000    1.5022839    8.7926319    14.704184    25.609403   0.50301661    2587.9635 
  669000   0.86777353    6.7892096     16.58662    24.596136   0.50062367    2601.2868 
  670000    0.6063779    6.9553836    15.929745    23.737848   0.47239551    2644.4989 
  671000   0.49208101    6.3986699    17.186075    24.276734    0.5051835    2600.9054 
  672000    1.0522744    7.4355479    15.370574    24.285883   0.47624609    2623.0641 
  673000    1.4447567    7.0338036     16.53773    25.603223   0.51477763    2583.1144 
  674000   0.91180804    7.2839215    15.629515    24.195666   0.48962052    2586.7764 
  675000     1.179285    7.6009619    14.467319     23.72665   0.45115246    2637.5301 
  676000   0.87333698    6.3833611    17.253053    24.864545   0.50482506    2624.2713 
  677000   0.74496372    9.5691959    15.937739     26.55454   0.56993071    2539.6821 
  678000   0.68421237    5.8936763    16.978787    23.834637   0.48380551     2618.721 
  679000   0.48172725    7.1713152    17.190836     25.03958   0.52424239     2593.522 
  680000   0.93462135    10.169903    15.340656     26.82487   0.56838089    2534.3419 
  681000   0.78964711    8.1615862    14.891365    24.163392   0.48651669    2595.6421 
  682000    1.0078655    8.6690077    14.522524    24.608842   0.48419581    2613.5768 
  683000     1.687464    5.8384332    17.873794    26.085224   0.52682903    2572.7649 
  684000    1.0683326    7.8447298    15.645238    24.992311   0.50139768    2587.7694 
  685000    1.1103347      7.38345    15.361053    24.305911   0.47179428    2624.5807 
  686000   0.35675767    8.8159864    16.249604    25.567281   0.54690949    2571.6995 
  687000    1.5519151    6.1024534    17.032825    25.317659   0.49995367    2597.4451 
  688000   0.73525425    7.9881387    13.587921    22.610011    0.4226552    2667.1395 
  689000    1.6831649     8.809658    16.040592      27.2172   0.55945831    2536.5576 
  690000    1.0944134    6.7523531    16.066748     24.35812   0.48872174    2594.6265 
  691000    1.1660228    7.3981328    16.226985    25.264837   0.50032067    2621.4055 
  692000   0.83420642    6.5164469    17.336503    25.026053    0.5198177    2587.8464 
  693000    1.3321297    6.9856879    15.454754    24.313749   0.47360121    2609.2239 
  694000    1.2648036    7.0703743    15.405457    24.254462   0.46903765    2633.8548 
  695000    1.1705111    7.7594351    15.148542    24.554008    0.4809321    2605.5425 
  696000    1.3203678     7.400636    15.759132    25.016535   0.49936919    2582.9163 
  697000    1.4968797    7.8457678    14.291797    24.242552   0.46081174    2610.2106 
  698000   0.79547965    7.4076884    15.677595    24.203926   0.48735494    2600.1434 
  699000   0.96632064    9.6011647    15.824263    26.784316    0.5657237    2548.9365 
  700000   0.91493465    6.3841174    15.696289    23.367033   0.45916814    2623.6151 
  701000    1.0473038    6.8526748    17.191543    25.516989   0.52765782    2580.9207 
  702000   0.96240885    9.4901783    16.534583    27.378149    0.5938128    2513.4706 
  703000    1.7197193    7.5160945    14.931314    24.865764   0.47033081    2623.6017 
  704000   0.57525026    7.4257863    16.548328     24.78306   0.51333465    2593.6327 
  705000    1.0161872     7.478663       16.889    25.796676   0.53363589      2567.93 
  706000    1.2657258    6.7884112    15.812679    24.381018   0.47950236    2608.4763 
  707000   0.81769322    8.6052026     15.43887    25.193954   0.52400726    2563.1125 
  708000   0.95572382    8.8398745    15.278566    25.462427    0.5135839    2586.9701 
  709000   0.60684692    6.2386614    15.731826    22.823866   0.44086861    2666.6102 
  710000   0.69599893    5.5948597     18.54428    25.117888   0.52099573    2613.3773 
  711000   0.93708791    6.4967411    14.941171    22.755692   0.43044581    2658.1196 
  712000    1.2158588    6.0990372    16.919451     24.72829   0.49528388    2599.0013 
  713000   0.48846796    8.1566757    14.592532    23.436116   0.47404258     2600.256 
  714000    1.1322442     6.311545     16.91843    24.822193   0.49830417    2599.2681 
  715000   0.97623813    6.6360454    16.662659    24.671539   0.50540394    2579.9397 
  716000   0.72392812    8.2229268    15.202991    24.443941   0.49050838    2618.2878 
  717000   0.75595822    8.8587251    15.752219    25.674011   0.53750264    2560.2075 
  718000   0.86703931    6.6950575    16.800354    24.714686   0.50018584    2602.1692 
  719000    1.0655183     5.737681     16.07403    23.310096   0.43848621    2673.4489 
  720000   0.86922279    7.9827445    16.914968    26.120057   0.55522796    2547.4868 
  721000   0.94248151     7.501392     16.17339    25.000147   0.49396165    2633.0638 
  722000    1.0652663    7.4897303    15.781346    24.769107   0.49599298    2596.8206 
  723000    1.0303408    7.7911117    16.458039    25.698068   0.53121196    2565.3037 
  724000    1.4874694    8.9338172    13.603273    24.628844   0.46623457    2612.0342 
  725000    1.5118346    6.7470589    15.713452    24.586528   0.46750698    2633.6714 
  726000   0.97903808    6.4174111    18.462683    26.256867   0.56351383    2541.6296 
  727000    1.3816408    5.9702423    15.064245    22.977419   0.42063097    2671.9134 
  728000   0.93214444    6.1650864    15.692312    23.168226   0.44713074    2640.8116 
  729000    1.3373497    7.8895256    16.559931    26.330105   0.54384092    2549.5146 
  730000    0.4236121    9.0180395    15.304588    24.918332   0.51725017    2593.5192 
  731000    0.5654861    7.6677106    15.612629    24.075554   0.49120752    2600.6293 
  732000    1.3081903    8.7632357    15.778467    26.381346    0.5403451    2554.6262 
  733000   0.76377111     6.197134    16.847585    24.118772   0.49136642    2600.2615 
  734000   0.73710929    6.2303611    16.905021    24.171942   0.48651822    2617.8881 
  735000    1.1588646    9.5394941    14.891375    26.060523   0.53952254    2538.7493 
  736000    1.2124909    7.3841332     16.07306    25.162259   0.50231226    2592.7926 
  737000   0.93666682    5.5055482    15.885132    22.707868   0.43336665     2657.705 
  738000    1.0197783    7.7476369    17.885101    27.066801   0.58090373    2546.3648 
  739000    1.0894834    8.1952788     15.92935    25.656715   0.53207113    2554.8061 
  740000    1.5321631    7.1123594    14.576394    23.843357   0.44318206    2638.9749 
  741000   0.60536363    7.8469609    15.474406     24.17266   0.49767806     2583.866 
  742000   0.48133156    10.145243    15.911235     26.73335   0.57725664    2543.4006 
  743000    1.1775882    8.1727822    15.862921    25.691686   0.52651191    2562.5934 
  744000   0.59262935    7.6508812    16.078518    24.562784   0.50017636    2621.8347 
  745000   0.85310798    7.6968007    14.799099    23.695583   0.46810787    2616.0384 
  746000    1.5530065    7.8140789     16.34433    26.342324    0.5319495     2571.234 
  747000   0.54230701    8.1613411     15.29822    24.222181    0.4927975    2602.7508 
  748000   0.78482504     8.513314    14.274725    23.891699   0.46519153    2632.8167 
  749000   0.90660545    9.4237248    15.796118    26.494756   0.56346696    2534.3793 
  750000   0.68495349    7.4095841    15.724508    24.097308   0.48786732    2608.8634 
  751000   0.61580812    7.9329613    15.408459      24.2074   0.48902702    2610.0087 
  752000    1.1581871      8.01238    16.117815    25.758896   0.52657366    2568.0189 
  753000    1.2419951    7.1303352     15.63871    24.515601    0.4874742    2589.0579 
  754000     1.023492    7.4371834    15.519953    24.396422   0.48322087    2608.5174 
  755000    1.1187056      8.08777    16.088875    25.749825   0.53051065    2556.2975 
  756000   0.69975489      8.11235    15.649524    24.745904   0.51016051    2576.7647 
  757000    1.6084706    7.8267221    14.023507    24.112141   0.44396814    2636.4466 
  758000   0.92952831    7.9797942    15.685915    24.972858   0.50951102    2581.9506 
  759000    1.0688245    8.6022903    14.849632    24.954957   0.49648296    2594.3145 
  760000   0.62977438    7.1979629    15.339363    23.422946   0.46763551    2619.8123 
  761000     1.078021    8.3218989    15.745651    25.583517   0.52514385    2563.3994 
  762000   0.88783333    7.7202017    16.821491    25.790208   0.53882336    2570.2407 
  763000   0.60812828     6.374558    17.370384    24.600122   0.50924498    2610.7754 
  764000   0.90700676    7.2089197     17.55063    26.035028   0.55119729    2553.6901 
  765000   0.99164661    7.5839145    15.320751    24.299169   0.48884178    2585.1218 
  766000    1.0758978    6.7093559    17.607468    25.829805   0.53617629     2576.853 
  767000    0.9424279    7.2055237    14.733085    23.263898   0.44724552    2634.2083 
  768000    1.2184478    6.9522109    16.017231    24.682884   0.48816195    2601.3469 
  769000    0.6479985     6.083369    17.396449    24.391066   0.49820275    2612.7747 
  770000   0.96032155    6.5996964    16.901627    24.851775   0.50592111    2594.4208 
  771000     1.415837    8.0972876    14.710162    24.798471    0.4751706    2615.3722 
  772000   0.48611902    10.025029    15.678348    26.386982   0.57709307    2524.6655 
  773000    1.0551473    6.9344673    16.256987    24.675255   0.49604149    2602.7208 
  774000   0.59279081    6.1653709    16.404678    23.403661   0.46995681    2630.3509 
  775000   0.83574927    6.7153495    17.288296    25.178918   0.51284315    2620.3809 
  776000    1.0869253    9.4259507    14.673001     25.62744   0.52187664    2568.9975 
  777000    1.5694254    5.6357135    15.316619    23.159337   0.42493648    2659.4423 
  778000    1.5932341    8.0662189    15.360425    25.667129   0.50482694    2584.4172 
  779000   0.60939923     7.269599    16.943992    25.070559   0.52843284    2573.7646 
  780000   0.95840705    5.4153448     16.93578    23.698884   0.46672023    2641.1078 
  781000    1.1061046    7.3527656    16.269727    25.177952    0.5136728    2572.9047 
  782000    1.3370517    7.8459736     16.74111    26.467313   0.54175943    2565.5048 
  783000   0.79149772    8.4267143    14.441983    23.981741   0.47140045    2622.1452 
  784000    1.0854394    8.4219982    15.110945    25.059342   0.50190414    2586.6061 
  785000   0.94099357    7.4432939    16.974202    25.740768   0.53432066    2581.0537 
  786000    1.0799984    5.0853919    16.592933    23.197073   0.44944528    2642.1973 
  787000   0.87690117    6.5164155    17.545859    25.295417   0.52722651    2587.1993 
  788000   0.55120448    8.4289782    15.377728    24.581838   0.50506865    2587.2149 
  789000    1.4118856    6.6553159    14.876321    23.517101   0.43586648    2656.9336 
  790000   0.98899827    7.1919505    16.391476    24.974206   0.50880657     2591.774 
  791000   0.80978697    9.1822536    15.654683      25.9757   0.53933507    2574.2428 
  792000    1.0664665    7.1362562    15.136984    23.772959   0.46637827    2607.3288 
  793000    1.2069466    8.1501089    15.752344    25.599722   0.51687366    2585.9537 
  794000   0.80283156    8.8428319    16.424495    26.396309   0.57034409    2519.6968 
  795000   0.89575478     8.956609    14.761955    24.978219   0.49851017     2601.213 
  796000   0.69721157    8.8315345    14.142316    23.954304   0.47790913    2601.1065 
  797000    1.5550202    7.3844731    16.807235    26.378456   0.53943427    2556.3794 
  798000    1.0539439    9.1450884     14.06818    24.695377   0.48887064     2592.579 
  799000     1.309799    10.035291    14.786023    26.663219   0.54526335     2551.076 
  800000    1.3293016    8.1027912    15.389896    25.362018   0.50747998    2578.0413 
  801000   0.77962863     8.346067    15.046399    24.488818   0.49524997    2588.8505 
  802000    1.0198549    7.1893482    16.351949    24.975468   0.50855338    2588.0256 
  803000    1.4008105    7.3720004    15.107384    24.449274   0.47397189    2606.0782 
  804000   0.81831455    5.2655798    18.031197    24.447532   0.50685075    2588.3041 
  805000    1.3919034    8.8958639    15.767357    26.620586   0.55095552    2544.3841 
  806000   0.73954755    7.3210006    14.488412    22.849401   0.44046404    2645.6865 
  807000    1.1242081     6.402826    16.701079    24.684822   0.49137549    2614.1164 
  808000    1.1615356    10.279762    14.760638     26.67381   0.55503777    2536.8389 
  809000   0.89499966     8.157948    14.959913    24.376454   0.48527677    2604.7227 
  810000    1.1783485     7.418611    16.704421    25.780085   0.52335292    2590.9993 
  811000   0.97648231    7.9438793    14.765498    24.082555   0.47539171    2607.5429 
  812000    1.1762944    7.7416068    14.555516    23.951287   0.46258193     2613.636 
  813000     1.500586    5.4852914    17.638777    25.234267   0.50116251    2601.8301 
  814000   0.68274012     6.180867    17.013169     24.15414   0.49495057    2612.3122 
  815000   0.67311901    7.6773971    16.095272    24.719243   0.50122127    2610.4058 
  816000    1.2566708    8.2841619     16.00398    26.055335   0.53745458    2552.9514 
  817000   0.97708991    7.1892936    15.657877    24.221203    0.4836059    2600.9621 
  818000   0.67637928    7.5655029    15.636482    24.153143   0.48859731    2614.4333 
  819000   0.83610849    11.758321    13.766672     26.70077   0.55358605    2554.1148 
  820000   0.67751356    9.0840406    14.117224    24.154018   0.48450443    2602.9744 
  821000    1.6609679    6.2763316    15.627369    24.239437   0.45458075    2632.6297 
  822000   0.95060576    7.3970014     16.13287    24.866661   0.50911535    2583.7685 
  823000   0.98547086    7.0259799    15.860011    24.271809   0.47849742    2627.8916 
  824000    1.0827844    5.4795709    16.358049    23.360285   0.45565739    2629.3305 
  825000     1.027523    9.6185004    14.809126    25.872581   0.52927024     2562.019 
  826000   0.72116124    9.2773117    14.839463    25.130908   0.51836062    2573.7458 
  827000   0.93436438    6.8718218    15.992555    24.178326   0.48012032    2614.1693 
  828000   0.66988199    8.7177293    15.713338    25.373089   0.53554016    2555.4924 
  829000    1.4174139    7.1696031    15.327343    24.490185   0.47270193    2615.8839 
  830000    1.3231441    6.1927218    15.821136    23.874529    0.4594141    2622.4845 
  831000    1.0928861    10.106331    16.837807    28.481009   0.61898516    2520.3904 
  832000   0.67122762    8.3343849    14.107767    23.386066   0.44979497    2643.4989 
  833000    1.4551614    4.4421712    17.728738     24.21723   0.46880989    2640.0779 
  834000   0.89225196    9.6614644    14.727803    25.643996   0.52812963    2570.8299 
  835000    1.1431197    6.3466532    15.206477    23.160643   0.43823855     2646.887 
  836000   0.63841284    7.9447601    15.500075    24.342603   0.49354681    2616.5858 
  837000   0.77295719    8.4128116    15.722184    25.221967   0.51988679    2582.7295 
  838000    1.5643866     7.062869    14.813396    24.076183   0.44847473    2643.6323 
  839000    1.2306898    7.1584398    15.870462    24.759559   0.49359064    2593.7324 
  840000    1.1284466     7.660949    14.455978    23.703805   0.45622202    2622.1944 
  841000    1.1672089    6.8932314    17.161084    25.695703   0.52645268    2578.5001 
  842000   0.91863369    7.6143309    15.611003    24.517162   0.49729556    2582.6558 
  843000   0.63271328    9.3103563    14.914549    25.114658   0.51254752    2592.5802 
  844000   0.80476277    10.763003    15.103718    26.998419   0.58369729    2512.0842 
  845000   0.99184717    6.4579416    16.830273    24.682999   0.49741509    2610.2504 
  846000   0.61749536    8.4800151    14.668795    24.017163   0.48097921    2614.3139 
  847000    1.2137723     9.413753    15.265112    26.385732   0.53594824    2575.0003 
  848000    0.7902881    7.6860227    15.485517    24.282882   0.48904181    2603.4174 
  849000     0.827766    6.2289817    16.398142     23.79117   0.47181383    2631.3096 
  850000   0.90349832    8.1969806    15.936132    25.403657   0.52581686     2564.366 
  851000    1.1629315    7.3330773    15.761171    24.729621   0.48782406    2605.6781 
  852000   0.60936016    6.0015228    16.400069    23.258505   0.46258015    2638.6653 
  853000    1.4774707    7.4663156    15.246989    24.790998   0.47599527    2618.9548 
  854000   0.80097662     7.353593    16.307764    24.787731   0.50795204    2593.3716 
  855000   0.61200283    7.3546223    16.874392    25.089643   0.52015042    2598.8976 
  856000    1.0547604    7.2881712    15.719542     24.49097   0.48765067    2604.4586 
  857000    1.1369691    7.4177377     16.47434     25.49094   0.52679423    2557.0963 
  858000    1.7419796      8.10296    15.400864    25.953483   0.51113023    2575.6453 
  859000   0.90519376    6.7880155    15.282811    23.343755   0.45666123    2621.0154 
  860000    1.5045032     6.951306    15.889522    24.956535   0.48986487     2596.641 
  861000    0.9425683     7.903147    16.247238    25.475872   0.52854078    2567.3064 
  862000   0.78783232    7.8843889    13.923098    22.915376   0.42969104    2662.5858 
  863000    1.2743463    7.5198005    15.130682    24.442532   0.47708085    2608.8413 
  864000    1.0349015    7.3984575     16.76086    25.614648   0.53345851    2560.2748 
  865000   0.82503809    7.4986725    16.113623    24.772505    0.5056108    2584.9561 
  866000   0.61363108    5.9184279    17.393778    24.175125   0.48620334    2639.0407 
  867000   0.95637541    8.0245119    15.555352    24.924767   0.50329646    2589.8137 
  868000    1.0217949    8.8184412     16.35201     26.60735    0.5613862    2542.5967 
  869000    1.1611885    7.4804911    15.357104    24.470517   0.48065615    2604.5831 
  870000     1.380792    9.1245365    14.665541    25.731817   0.51346481    2569.4485 
  871000    1.2687446    7.2446575    16.087655    25.116485    0.4970734     2602.163 
  872000    1.1128779     7.084863    14.886822     23.53667   0.45125767    2634.2255 
  873000    1.0255912    7.8407739    15.897377    25.180389   0.51383538    2579.8309 
  874000    1.1803433    6.9119075    17.109473    25.681238   0.52748935    2572.4887 
  875000   0.48362808    8.5266484     14.59138     23.79813   0.47939806    2613.8492 
  876000    1.0967484    7.8135314    15.123121    24.478955   0.48002133    2611.1969 
  877000   0.60162286    7.3491166    18.230083    26.425232   0.56409441    2567.8004 
  878000   0.77817642    6.9968558    15.997831    24.088998    0.4848496    2613.9089 
  879000    0.8934031    6.8032707    15.604924    23.664543   0.46608584    2621.2415 
  880000    1.2675369    7.5994189    16.024199    25.406092   0.51163513    2583.7203 
  881000   0.70653607    7.3889927    16.417382    24.799941   0.51677351    2573.1961 
  882000   0.52446155    7.8949141    15.077927    23.710365   0.46835957    2641.1885 
  883000    1.7493565    8.1608696    14.835685    25.456587   0.48912737    2597.0183 
  884000    1.1991453    8.1698572    15.702653    25.558808   0.52272277    2563.1251 
  885000   0.83117092    7.6425486    14.330449    23.141831   0.44043984    2653.1856 
  886000    0.8218757    9.6848064    14.926854    25.767423   0.52622788     2588.993 
  887000    1.0152399    7.1262105     16.30488    24.858772   0.50338456    2593.3751 
  888000   0.81306846    7.4992947     16.02929    24.671963   0.50424849    2585.9595 
  889000    1.0779555    6.4285253    17.214317    25.158717   0.51174123    2592.8882 
  890000    1.2709928    5.8559968    15.781595    23.424926   0.44793312    2632.3359 
  891000   0.85992854    7.6584179    16.133096    25.000789    0.5109085    2587.0957 
  892000    1.8313558    7.4326891     15.64594    25.653973   0.49105314    2611.0872 
  893000   0.98603153    7.8331261    14.614576    23.834309   0.45843938    2632.1875 
  894000    1.2621413    6.4356864    16.725888     24.93646   0.49869174    2600.9252 
  895000   0.94020182    8.7341961     15.02002    25.076375   0.51312324    2568.0328 
  896000   0.76968151    7.4971363    16.047195    24.626696   0.49431669    2612.9352 
  897000    1.0550812    6.9332705    16.006418    24.423396   0.48962033    2593.0503 
  898000    0.8337848    8.2694265    16.224445    25.666382   0.53407107    2569.8052 
  899000   0.75833954    7.5493958    16.095287    24.711098   0.50154916    2610.8485 
  900000   0.64082958    7.9533332    15.217186    24.071686   0.48887814    2593.6597 
  901000     1.012133    8.1640513    16.644081    26.231444   0.54862314    2563.2281 
  902000   0.69999586    7.1306698    16.213297    24.328336   0.49684862     2604.223 
  903000   0.94989819    7.0342191    16.482032    24.852045    0.5030853    2598.1648 
  904000   0.75468309    7.0095326    18.159487    26.230292   0.56731972    2547.9215 
  905000   0.54715769    7.3273157    16.297709    24.394465   0.49515806    2616.6018 
  906000   0.87982832    6.4900681    16.255193     23.98252   0.48488288    2596.8589 
  907000   0.60985501    9.1247002    16.493445    26.475754   0.56988157    2540.8656 
  908000    1.1671887    7.4155019    15.464333    24.521194    0.4886068     2588.666 
  909000   0.71556458    5.7540177    16.985403    23.745684   0.47735731    2633.3448 
  910000    1.1595997    7.2936664    16.097359    25.021712   0.50166494    2594.6517 
  911000      1.26632    7.9477848    15.263346    24.991894   0.50239082    2569.1912 
  912000     0.555895    8.1020236    15.587476    24.471227   0.49843974    2610.9862 
  913000     1.048682    7.6838913    15.206725    24.365326   0.48563094    2594.3738 
  914000   0.69115742    8.3699905    15.272792    24.614723   0.50659301    2587.5437 
  915000    1.0652836    7.0794922     16.59538    25.172927   0.50954268     2599.095 
  916000    1.2035477    7.4247531    15.779925    24.897167   0.49707264    2589.7959 
  917000    1.3429657    6.5935234    15.598632    24.080701   0.46468418    2617.3867 
  918000   0.55720931    8.7836914    16.467399    26.034666   0.56187129    2552.6539 
  919000   0.32970038    7.9019762    16.280231    24.645848   0.51801116    2594.8066 
  920000    1.3718641     5.855682    16.177767    23.962633   0.45731167    2640.4879 
  921000   0.98168462    5.9737741    18.125021    25.479289   0.53593277    2563.7851 
  922000       1.0199    7.6515789    14.976877    24.062691   0.46929362    2624.7364 
  923000     1.098521    8.7296506    15.380561    25.655007   0.52495799    2562.2049 
  924000    1.1244548    9.4567196    13.950885     24.98887   0.49444427     2590.159 
  925000   0.59097412    8.7002219    13.561494    23.092773   0.44809794    2630.7494 
  926000   0.66323652    6.8780017    19.111135    26.921813   0.59400944    2535.0024 
  927000    1.0398848    6.5942634    16.881308     24.93791   0.50848574    2592.5604 
  928000   0.88202907    7.5052761     15.06131    23.806939   0.47250211    2606.6954 
  929000   0.86610733    7.3158107    16.660676     25.19445   0.51887309    2587.0019 
  930000   0.92634361    8.6000739    15.645338    25.548083   0.52799635    2563.8512 
  931000    1.3147224    8.7963606     13.87146    24.516649   0.46674911    2622.8008 
  932000    1.3300129    8.5365649    15.234624    25.641519   0.51978356    2557.3778 
  933000    1.1098897        7.634    15.939062    25.133844   0.50293846    2594.5414 
  934000   0.75969955    7.5287932     16.52469    25.121811   0.52561487     2570.594 
  935000   0.62581894    8.7715779     16.11582    25.767456   0.54330351     2565.719 
  936000    0.9821124     8.456124    15.464514    25.301733   0.50539495    2599.4196 
  937000    1.2528531    9.5194749    14.101798    25.383098    0.5056816    2571.4182 
  938000    1.6357825     7.797215    14.312843    24.410377   0.45987527    2614.3332 
  939000    1.2431662    7.7031578    15.676121    25.127482   0.49989879     2593.371 
  940000   0.55524823    7.6690769    16.915686    25.365581   0.54300867    2553.0337 
  941000   0.54267389    7.6445892    15.109997    23.517721   0.46245239    2649.2446 
  942000    0.8808155    7.3761083     15.55603    24.170785   0.48352352    2606.1465 
  943000   0.92903435    7.5862333    16.325575    25.218263   0.51772156    2576.3136 
  944000    1.4443922    6.5474699    15.755103    24.333749   0.47107489    2610.2776 
  945000   0.86005125    6.7304379    15.528228    23.468113   0.45394596     2644.929 
  946000   0.70677526    9.8966103    14.914596    25.805109   0.53953398    2559.5552 
  947000    1.0918238     7.121776    16.545993    25.203147    0.5040735    2605.0392 
  948000   0.97630398    7.7794606    15.544401    24.696789   0.49600574    2598.1296 
  949000   0.55829331     7.811783      17.7005    26.297383   0.56576426    2551.1329 
  950000     1.390555    6.6806496    16.549107    25.185224   0.49861628    2606.3594 
  951000    0.9162651    7.7324909    14.676428    23.697417   0.45729673    2632.1136 
  952000   0.80872321    6.2577151    17.980007    25.374989   0.53178073    2581.7296 
  953000   0.82690117    7.8332657    15.892671    24.888767   0.51263991    2580.8762 
  954000    1.3045168    6.1826471    16.171516     24.18864   0.46921016    2620.2784 
  955000    1.5554572    9.4121937    15.549781    27.149336   0.54875034    2554.5876 
  956000    0.9797528    8.4766502    14.130887    23.985315   0.46807717    2613.5821 
  957000    1.2452601     6.025204    16.541651    24.318002   0.47729004    2618.0476 
  958000    1.3174398    7.3704371    16.915999    26.139086   0.54574432      2539.23 
  959000    1.3491591    7.0460885    15.797727     24.74107   0.47761082    2621.0626 
  960000   0.66278638    9.4585353    15.606073    25.996652   0.54437287    2562.9398 
  961000   0.73033976    8.6442261    15.783533      25.4548   0.52524255    2576.0145 
  962000   0.47017242    7.2102225    15.366919    23.238322   0.46431526     2638.205 
  963000    1.1884461    7.7234257    15.314768    24.709446   0.48755632     2607.159 
  964000     1.510093    7.6120667    16.059763    25.795398   0.51737214    2568.6189 
  965000   0.67390218    7.4597123    17.035284    25.442671   0.53116152    2576.0036 
  966000   0.94429535    5.5733196    16.665854    23.567089   0.46340822    2642.0561 
  967000     1.305598    7.5148261    15.542522    24.893345   0.49602234    2581.7839 
  968000    1.4171259    8.3633976    16.955463    27.311694   0.57768339    2524.9283 
  969000    1.0141776    6.6275193    14.990005    23.043712   0.43667623    2657.3274 
  970000    1.1093121    6.4356655    16.265482    24.261117   0.48292435    2604.5572 
  971000    1.4368767    10.321272    14.464565    26.806445   0.54158443     2554.504 
  972000   0.98851647    6.3978742    16.281481    24.069456   0.47894743    2615.0052 
  973000    1.3901043    5.5533058    16.696006    24.204146   0.46550192    2638.5364 
  974000   0.72487157    10.187252    15.418865    26.625468   0.56369227    2550.3473 
  975000   0.64498708    7.8182133    15.979873    24.705099     0.511353    2576.2246 
  976000   0.98239955    6.4341744    15.691877    23.507551    0.4508444    2647.1926 
  977000   0.54378467    8.1637629    16.099209     25.02767   0.52641078    2567.3018 
  978000   0.76946148    6.9100963     16.89452    24.886671   0.51334053    2584.7112 
  979000    1.3129896    6.3737465    14.070745    22.290883   0.39697964    2686.8671 
  980000   0.89087893     10.42021      15.5684    27.241408   0.58857695    2510.1755 
  981000    1.2763775    6.9921695    16.012608    24.799683   0.49161773    2604.4057 
  982000    1.5088176    7.5224456    15.103249    24.747469   0.47793112     2603.199 
  983000    1.4334079    7.5089919    16.235237    25.759958   0.52442813    2561.1554 
  984000    1.6689237    6.1274151    15.986921     24.46126   0.46541048    2619.6972 
  985000   0.73007719    7.6286472    15.273196    23.928514   0.47927403    2613.3134 
  986000    1.3140905     7.777025    16.128746     25.75371   0.52256576    2568.0621 
  987000   0.77866753    6.7849405    15.385462    23.265404   0.45292559    2645.0469 
  988000   0.92270773     8.239135    16.310071    25.846764   0.54287461    2558.0271 
  989000   0.55199463    8.8145888    16.212579     25.80341   0.54844789    2561.5875 
  990000   0.81492821    5.5175741    17.052237    23.715804   0.47097486    2631.4001 
  991000    1.3411327    7.8898572    15.443403    25.219228   0.50250979    2586.4845 
  992000   0.93487564    9.8452625    14.398685    25.558616   0.52021988     2571.496 
  993000   0.78647945    6.4658686    15.972918    23.544773   0.46138428    2638.9479 
  994000    0.9826926    7.1248764    16.389681    24.896468   0.51008317    2578.5027 
  995000    1.0266951    6.5387388    15.802083    23.784612   0.46795676    2621.8668 
  996000    1.0218864    5.9932801    16.741579    24.171887     0.484894    2603.7878 
  997000    1.2834393    8.8899498     14.81012    25.504906   0.51057364    2580.3854 
  998000    1.0429749    6.5700717    16.481532    24.518287   0.48875724    2615.1828 
  999000    0.6143578     8.418852    15.873162    25.155955   0.52265147     2577.562 
 1000000    1.3450342    7.3592778    15.786522    25.037254   0.48006562     2637.067 
Loop time of 3.0498 on 1 procs for 1000000 steps with 16 atoms

Performance: 141648592.160 tau/day, 327890.260 timesteps/s
97.3% CPU use with 1 MPI tasks x no OpenMP threads

MPI task timing breakdown:
Section |  min time  |  avg time  |  max time  |%varavg| %total
---------------------------------------------------------------
Pair    | 0.46744    | 0.46744    | 0.46744    |   0.0 | 15.33
Bond    | 0.26238    | 0.26238    | 0.26238    |   0.0 |  8.60
Neigh   | 0.23482    | 0.23482    | 0.23482    |   0.0 |  7.70
Comm    | 0.19282    | 0.19282    | 0.19282    |   0.0 |  6.32
Output  | 0.020402   | 0.020402   | 0.020402   |   0.0 |  0.67
Modify  | 1.5411     | 1.5411     | 1.5411     |   0.0 | 50.53
Other   |            | 0.3308     |            |       | 10.85

Nlocal:    16 ave 16 max 16 min
Histogram: 1 0 0 0 0 0 0 0 0 0
Nghost:    7 ave 7 max 7 min
Histogram: 1 0 0 0 0 0 0 0 0 0
Neighs:    27 ave 27 max 27 min
Histogram: 1 0 0 0 0 0 0 0 0 0

Total # of neighbors = 27
Ave neighs/atom = 1.6875
Ave special neighs/atom = 2.625
Neighbor list builds = 63836
Dangerous builds = 16
Total wall time: 0:00:03
